
Gurobi 6.5.0 (linux64) logging started Tue 19 Apr 2016 02:15:20 PM EDT


Gurobi 6.5.0 (linux64) logging started Tue 19 Apr 2016 02:15:33 PM EDT


Gurobi 6.5.0 (linux64) logging started Tue 19 Apr 2016 02:28:08 PM EDT


Gurobi 6.5.0 (linux64) logging started Tue 19 Apr 2016 06:38:55 PM EDT


Gurobi 6.5.0 (linux64) logging started Tue 19 Apr 2016 06:54:45 PM EDT


Gurobi 6.5.0 (linux64) logging started Tue 19 Apr 2016 07:01:06 PM EDT


Gurobi 6.5.0 (linux64) logging started Tue 19 Apr 2016 07:29:08 PM EDT


Gurobi 6.5.0 (linux64) logging started Tue 19 Apr 2016 07:32:43 PM EDT


Gurobi 6.5.0 (linux64) logging started Tue 19 Apr 2016 07:33:25 PM EDT


Gurobi 6.5.0 (linux64) logging started Tue 19 Apr 2016 07:34:42 PM EDT


Gurobi 6.5.0 (linux64) logging started Tue 19 Apr 2016 07:36:45 PM EDT


Gurobi 6.5.0 (linux64) logging started Tue 19 Apr 2016 07:44:53 PM EDT


Gurobi 6.5.0 (linux64) logging started Tue 19 Apr 2016 07:45:12 PM EDT


Gurobi 6.5.0 (linux64) logging started Tue 19 Apr 2016 07:45:32 PM EDT


Gurobi 6.5.0 (linux64) logging started Tue 19 Apr 2016 07:45:46 PM EDT


Gurobi 6.5.0 (linux64) logging started Tue 19 Apr 2016 07:45:56 PM EDT


Gurobi 6.5.0 (linux64) logging started Tue 19 Apr 2016 07:46:47 PM EDT


Gurobi 6.5.0 (linux64) logging started Tue 19 Apr 2016 07:50:07 PM EDT


Gurobi 6.5.0 (linux64) logging started Tue 19 Apr 2016 07:51:28 PM EDT


Gurobi 6.5.0 (linux64) logging started Tue 19 Apr 2016 07:51:59 PM EDT


Gurobi 6.5.0 (linux64) logging started Tue 19 Apr 2016 07:59:33 PM EDT


Gurobi 6.5.0 (linux64) logging started Tue 19 Apr 2016 08:24:14 PM EDT


Gurobi 6.5.0 (linux64) logging started Tue 19 Apr 2016 08:27:05 PM EDT


Gurobi 6.5.0 (linux64) logging started Tue 19 Apr 2016 10:51:03 PM EDT


Gurobi 6.5.0 (linux64) logging started Tue 19 Apr 2016 10:54:03 PM EDT


Gurobi 6.5.0 (linux64) logging started Sat 23 Apr 2016 04:23:19 PM EDT


Gurobi 6.5.0 (linux64) logging started Sat 23 Apr 2016 05:01:19 PM EDT


Gurobi 6.5.0 (linux64) logging started Sat 23 Apr 2016 05:23:33 PM EDT


Gurobi 6.5.0 (linux64) logging started Sat 23 Apr 2016 05:41:02 PM EDT


Gurobi 6.5.0 (linux64) logging started Sat 23 Apr 2016 05:41:56 PM EDT


Gurobi 6.5.0 (linux64) logging started Sat 23 Apr 2016 05:44:32 PM EDT


Gurobi 6.5.0 (linux64) logging started Sat 23 Apr 2016 05:44:45 PM EDT


Gurobi 6.5.0 (linux64) logging started Sat 23 Apr 2016 05:44:50 PM EDT


Gurobi 6.5.0 (linux64) logging started Sat 23 Apr 2016 05:49:02 PM EDT


Gurobi 6.5.0 (linux64) logging started Sat 23 Apr 2016 05:51:52 PM EDT


Gurobi 6.5.0 (linux64) logging started Sat 23 Apr 2016 06:09:47 PM EDT


Gurobi 6.5.0 (linux64) logging started Sat 23 Apr 2016 06:14:20 PM EDT


Gurobi 6.5.0 (linux64) logging started Sat 23 Apr 2016 06:23:16 PM EDT


Gurobi 6.5.0 (linux64) logging started Sat 23 Apr 2016 06:25:39 PM EDT


Gurobi 6.5.0 (linux64) logging started Sat 23 Apr 2016 06:25:52 PM EDT


Gurobi 6.5.0 (linux64) logging started Sat 23 Apr 2016 06:29:06 PM EDT


Gurobi 6.5.0 (linux64) logging started Sat 23 Apr 2016 06:29:22 PM EDT


Gurobi 6.5.0 (linux64) logging started Sat 23 Apr 2016 06:29:33 PM EDT


Gurobi 6.5.0 (linux64) logging started Sat 23 Apr 2016 06:29:41 PM EDT


Gurobi 6.5.0 (linux64) logging started Sat 23 Apr 2016 06:29:47 PM EDT


Gurobi 6.5.0 (linux64) logging started Sat 23 Apr 2016 06:29:53 PM EDT


Gurobi 6.5.0 (linux64) logging started Sat 23 Apr 2016 06:29:58 PM EDT


Gurobi 6.5.0 (linux64) logging started Sat 23 Apr 2016 06:30:01 PM EDT


Gurobi 6.5.0 (linux64) logging started Sat 23 Apr 2016 06:30:04 PM EDT


Gurobi 6.5.0 (linux64) logging started Sat 23 Apr 2016 06:30:08 PM EDT


Gurobi 6.5.0 (linux64) logging started Sat 23 Apr 2016 06:30:12 PM EDT


Gurobi 6.5.0 (linux64) logging started Sat 23 Apr 2016 06:30:15 PM EDT


Gurobi 6.5.0 (linux64) logging started Sat 23 Apr 2016 06:30:18 PM EDT


Gurobi 6.5.0 (linux64) logging started Sat 23 Apr 2016 06:30:21 PM EDT


Gurobi 6.5.0 (linux64) logging started Sat 23 Apr 2016 06:30:25 PM EDT


Gurobi 6.5.0 (linux64) logging started Sat 23 Apr 2016 06:30:28 PM EDT


Gurobi 6.5.0 (linux64) logging started Sat 23 Apr 2016 06:30:31 PM EDT


Gurobi 6.5.0 (linux64) logging started Sat 23 Apr 2016 06:30:52 PM EDT


Gurobi 6.5.0 (linux64) logging started Sat 23 Apr 2016 06:34:27 PM EDT


Gurobi 6.5.0 (linux64) logging started Sat 23 Apr 2016 06:35:17 PM EDT


Gurobi 6.5.0 (linux64) logging started Sat 23 Apr 2016 06:40:57 PM EDT


Gurobi 6.5.0 (linux64) logging started Sat 23 Apr 2016 06:42:22 PM EDT


Gurobi 6.5.0 (linux64) logging started Sat 23 Apr 2016 06:43:32 PM EDT


Gurobi 6.5.0 (linux64) logging started Sat 23 Apr 2016 06:44:00 PM EDT


Gurobi 6.5.0 (linux64) logging started Sat 23 Apr 2016 06:44:15 PM EDT


Gurobi 6.5.0 (linux64) logging started Sat 23 Apr 2016 07:14:24 PM EDT


Gurobi 6.5.0 (linux64) logging started Sat 23 Apr 2016 07:15:41 PM EDT


Gurobi 6.5.0 (linux64) logging started Sat 23 Apr 2016 07:18:26 PM EDT


Gurobi 6.5.0 (linux64) logging started Sat 23 Apr 2016 07:19:31 PM EDT


Gurobi 6.5.0 (linux64) logging started Sat 23 Apr 2016 07:26:12 PM EDT


Gurobi 6.5.0 (linux64) logging started Sat 23 Apr 2016 07:27:44 PM EDT


Gurobi 6.5.0 (linux64) logging started Sat 23 Apr 2016 07:31:15 PM EDT


Gurobi 6.5.0 (linux64) logging started Sat 23 Apr 2016 07:40:36 PM EDT


Gurobi 6.5.0 (linux64) logging started Sat 23 Apr 2016 08:00:58 PM EDT


Gurobi 6.5.0 (linux64) logging started Sat 23 Apr 2016 08:05:37 PM EDT


Gurobi 6.5.0 (linux64) logging started Sat 23 Apr 2016 08:07:28 PM EDT


Gurobi 6.5.0 (linux64) logging started Sat 23 Apr 2016 08:16:03 PM EDT


Gurobi 6.5.0 (linux64) logging started Sat 23 Apr 2016 08:16:24 PM EDT


Gurobi 6.5.0 (linux64) logging started Sat 23 Apr 2016 08:20:33 PM EDT


Gurobi 6.5.0 (linux64) logging started Sat 23 Apr 2016 08:22:23 PM EDT

